0
2
4
6
7
7
8
9
9
10
10
10
11
12
12
12
12
14
15
15
15
1
2
3
3
5
5
5
6
6
7
7
7
7
8
8
9
9
9
9
9
1
2
2
3
4
5
6
6
6
7
10
10
10
10
10
11
11
12
12
8
2
3
3
4
4
5
6
6
6
7
7
8
9
9
9
9
10
11
12
13
0
2
4
4
5
5
6
7
7
7
7
7
7
8
9
10
10
10
11
8
